\ Model qp
\ LP format - for model browsing. Use MPS format to capture full model detail.
Minimize
 [ 2 F ^2 + 2000 a0 ^2 ] / 2 
Subject To
 R2300: 0.5520857488264945 F - 4.824097708392316 a0 >= 7.613060671907433
 R2301: 0.5934004544133121 F - 18.37399111789107 a1 >= 0
 R2302: - 0.5994630056062398 F + 2697.696437560593 a2 >= 0
 R2303: 0.5371405827263549 F + 318.4473634693614 a3 >= -9.81
Bounds
 F <= 27.8604
 1 <= a0 <= 1e+06
 1 <= a1 <= 1e+06
 1 <= a2 <= 1e+06
 1 <= a3 <= 1e+06
End
